Gurobi Optimizer version 9.1.0 build v9.1.0rc0 (linux64)
Thread count: 8 physical cores, 16 logical processors, using up to 16 threads
Optimize a model with 175196 rows, 160320 columns and 920780 nonzeros
Model fingerprint: 0x52b401dd
Variable types: 0 continuous, 160320 integer (160320 binary)
Coefficient statistics:
  Matrix range     [1e+00, 1e+00]
  Objective range  [1e+01, 1e+05]
  Bounds range     [1e+00, 1e+00]
  RHS range        [1e+00, 1e+03]
Presolve removed 20 rows and 20 columns
Presolve time: 2.88s
Presolved: 175176 rows, 160300 columns, 920740 nonzeros
Variable types: 0 continuous, 160300 integer (160300 binary)
Found heuristic solution: objective 640600.00000

Concurrent LP optimizer: primal simplex, dual simplex, and barrier
Showing barrier log only...

Root barrier log...

Ordering time: 0.06s

Barrier statistics:
 Dense cols : 160
 AA' NZ     : 8.027e+05
 Factor NZ  : 3.695e+06 (roughly 170 MBytes of memory)
 Factor Ops : 1.996e+08 (less than 1 second per iteration)
 Threads    : 6

                  Objective                Residual
Iter       Primal          Dual         Primal    Dual     Compl     Time
   0   8.16526795e+07 -1.35613465e+05  9.31e+01 0.00e+00  2.31e+03     9s
   1   8.13821190e+05 -2.44409838e+07  1.38e-01 3.35e+03  5.20e+01     9s
   2   7.38492141e+05 -6.57302855e+05  3.20e-02 3.42e+02  2.83e+00     9s
   3   7.11741631e+05  9.66973134e+04  2.28e-02 1.27e+02  1.24e+00    10s
   4   6.07388872e+05  4.00230418e+05  2.57e-03 3.60e+01  4.19e-01    10s
   5   5.61796979e+05  4.67390338e+05  9.12e-04 1.69e+01  1.91e-01    11s
   6   5.45959558e+05  4.85333023e+05  5.56e-04 1.16e+01  1.23e-01    11s
   7   5.38047584e+05  4.95724279e+05  3.91e-04 7.85e+00  8.57e-02    11s
   8   5.31098423e+05  5.02134707e+05  2.49e-04 5.57e+00  5.87e-02    12s
   9   5.28381858e+05  5.06366988e+05  1.96e-04 4.07e+00  4.46e-02    12s
  10   5.26119757e+05  5.10658777e+05  1.54e-04 2.59e+00  3.13e-02    13s
  11   5.23916797e+05  5.12283837e+05  1.14e-04 1.98e+00  2.35e-02    13s
  12   5.22471332e+05  5.13486290e+05  8.85e-05 1.54e+00  1.82e-02    14s
  13   5.21103095e+05  5.14753023e+05  6.38e-05 1.09e+00  1.28e-02    14s
  14   5.20549562e+05  5.15686987e+05  5.37e-05 7.42e-01  9.83e-03    14s
  15   5.20279172e+05  5.16022005e+05  4.88e-05 6.06e-01  8.60e-03    15s
  16   5.19529079e+05  5.16277377e+05  3.55e-05 5.06e-01  6.57e-03    15s
  17   5.19162971e+05  5.16643983e+05  2.90e-05 3.72e-01  5.09e-03    16s
  18   5.18810181e+05  5.16912039e+05  2.25e-05 2.65e-01  3.83e-03    16s
  19   5.18720769e+05  5.16988590e+05  2.09e-05 2.34e-01  3.50e-03    17s
  20   5.18476986e+05  5.17079087e+05  1.67e-05 1.97e-01  2.82e-03    17s
  21   5.18317662e+05  5.17136235e+05  1.38e-05 1.71e-01  2.39e-03    18s
  22   5.18202125e+05  5.17237662e+05  1.16e-05 1.31e-01  1.95e-03    18s
  23   5.18063311e+05  5.17297340e+05  9.08e-06 1.05e-01  1.55e-03    19s
  24   5.17976880e+05  5.17372418e+05  7.47e-06 7.51e-02  1.22e-03    19s
  25   5.17891482e+05  5.17393834e+05  5.98e-06 6.64e-02  1.00e-03    19s
  26   5.17879832e+05  5.17414889e+05  5.76e-06 5.80e-02  9.38e-04    20s
  27   5.17806108e+05  5.17436669e+05  4.45e-06 4.94e-02  7.46e-04    20s
  28   5.17758764e+05  5.17448786e+05  3.59e-06 4.44e-02  6.26e-04    21s
  29   5.17716499e+05  5.17464591e+05  2.81e-06 3.81e-02  5.09e-04    21s
  30   5.17680180e+05  5.17488649e+05  2.16e-06 2.87e-02  3.87e-04    21s
  31   5.17655998e+05  5.17510791e+05  1.71e-06 2.05e-02  2.93e-04    22s
  32   5.17632277e+05  5.17518672e+05  1.27e-06 1.74e-02  2.30e-04    22s
  33   5.17621505e+05  5.17526602e+05  1.08e-06 1.42e-02  1.92e-04    22s
  34   5.17616071e+05  5.17530807e+05  9.83e-07 1.26e-02  1.72e-04    23s
  35   5.17601852e+05  5.17537796e+05  7.25e-07 9.77e-03  1.29e-04    23s
  36   5.17595177e+05  5.17544389e+05  6.09e-07 7.18e-03  1.03e-04    24s
  37   5.17587682e+05  5.17546023e+05  4.73e-07 6.49e-03  8.42e-05    24s
  38   5.17584302e+05  5.17549400e+05  4.13e-07 5.12e-03  7.05e-05    25s
  39   5.17578758e+05  5.17551329e+05  3.09e-07 4.38e-03  5.54e-05    25s
  40   5.17576625e+05  5.17553252e+05  2.76e-07 3.60e-03  4.73e-05    25s
  41   5.17571507e+05  5.17554578e+05  1.79e-07 3.09e-03  3.43e-05    26s
  42   5.17568570e+05  5.17555947e+05  1.22e-07 2.53e-03  2.56e-05    26s
  43   5.17567793e+05  5.17556941e+05  1.06e-07 2.15e-03  2.20e-05    27s
  44   5.17567541e+05  5.17557857e+05  1.02e-07 1.79e-03  1.96e-05    27s
  45   5.17566238e+05  5.17559036e+05  7.63e-08 1.34e-03  1.46e-05    27s
  46   5.17564693e+05  5.17559618e+05  4.73e-08 1.11e-03  1.03e-05    28s
  47   5.17564027e+05  5.17559935e+05  3.49e-08 9.88e-04  8.32e-06    28s
  48   5.17563670e+05  5.17560452e+05  2.81e-08 7.65e-04  6.54e-06    29s
  49   5.17563537e+05  5.17560598e+05  2.56e-08 7.00e-04  5.97e-06    29s
  50   5.17563148e+05  5.17560892e+05  1.83e-08 5.72e-04  4.59e-06    29s
  51   5.17562888e+05  5.17561187e+05  1.34e-08 4.42e-04  3.46e-06    30s
  52   5.17562719e+05  5.17561413e+05  1.02e-08 3.41e-04  2.66e-06    30s
  53   5.17562667e+05  5.17561447e+05  9.18e-09 3.27e-04  2.48e-06    30s
  54   5.17562646e+05  5.17561520e+05  8.80e-09 2.99e-04  2.29e-06    31s
  55   5.17562537e+05  5.17561586e+05  6.79e-09 2.68e-04  1.94e-06    31s
  56   5.17562459e+05  5.17561731e+05  5.37e-09 2.03e-04  1.48e-06    32s
  57   5.17562406e+05  5.17561749e+05  4.38e-09 1.95e-04  1.34e-06    32s
  58   5.17562360e+05  5.17561857e+05  3.47e-09 1.45e-04  1.02e-06    32s
  59   5.17562241e+05  5.17561904e+05  1.31e-09 1.22e-04  6.90e-07    33s
  60   5.17562231e+05  5.17561957e+05  1.13e-09 1.00e-04  5.62e-07    33s
  61   5.17562222e+05  5.17562148e+05  9.56e-10 9.72e-06  1.50e-07    33s
  62   5.17562202e+05  5.17562150e+05  7.56e-10 8.84e-06  1.06e-07    34s
  63   5.17562201e+05  5.17562156e+05  7.37e-10 6.13e-06  9.17e-08    34s
  64   5.17562187e+05  5.17562159e+05  5.78e-10 4.70e-06  5.84e-08    34s
  65   5.17562176e+05  5.17562162e+05  4.77e-10 3.01e-06  2.75e-08    35s
  66   5.17562173e+05  5.17562168e+05  2.43e-10 5.44e-07  9.51e-09    35s

Barrier solved model in 66 iterations and 34.79 seconds
Optimal objective 5.17562173e+05


Root crossover log...

  135248 variables added to crossover basis                       35s

   32739 DPushes remaining with DInf 5.3753283e-03                36s
       0 DPushes remaining with DInf 0.0000000e+00                40s

    1552 PPushes remaining with PInf 0.0000000e+00                40s
       0 PPushes remaining with PInf 0.0000000e+00                40s

  Push phase complete: Pinf 0.0000000e+00, Dinf 1.9896085e-10     40s


Root simplex log...

Iteration    Objective       Primal Inf.    Dual Inf.      Time
   11084    5.1756217e+05   0.000000e+00   0.000000e+00     40s
   11084    5.1756217e+05   0.000000e+00   0.000000e+00     40s

Solved with barrier

Root relaxation: objective 5.175622e+05, 11084 iterations, 33.33 seconds

    Nodes    |    Current Node    |     Objective Bounds      |     Work
 Expl Unexpl |  Obj  Depth IntInf | Incumbent    BestBd   Gap | It/Node Time

     0     0 517562.169    0 25586 640600.000 517562.169  19.2%     -   44s
H    0     0                    535084.00000 517562.169  3.27%     -   49s
H    0     0                    532178.00000 517562.169  2.75%     -   51s
H    0     0                    531922.00000 517562.169  2.70%     -   53s
     0     0 517564.843    0 25596 531922.000 517564.843  2.70%     -   76s
H    0     0                    531920.00000 517564.843  2.70%     -   78s
     0     0 517567.997    0 25840 531920.000 517567.997  2.70%     -  144s
H    0     0                    531518.00000 517567.997  2.62%     -  151s
     0     0 517568.893    0 25848 531518.000 517568.893  2.62%     -  165s
     0     0 517569.012    0 25849 531518.000 517569.012  2.62%     -  178s
     0     0 517569.031    0 25844 531518.000 517569.031  2.62%     -  190s
     0     0 517569.031    0 25837 531518.000 517569.031  2.62%     -  235s
H    0     0                    531288.00000 517569.293  2.58%     -  266s
     0     2 517569.293    0 25837 531288.000 517569.293  2.58%     -  300s

Cutting planes:
  Gomory: 6

Explored 1 nodes (18994 simplex iterations) in 300.07 seconds
Thread count was 16 (of 16 available processors)

Solution count 7: 531288 531518 531920 ... 640600

Time limit reached
Best objective 5.312880000000e+05, best bound 5.175692925524e+05, gap 2.5822%

User-callback calls 28692, time in user-callback 0.61 sec
['/opt/local/stow/gurobi910/linux64/lib/libgurobi91.so']
Result: runtime=300.03sec; objective=531288; gap=0.0258%
Solution written to /autofs/unityaccount/cremi/mdeboute/Bureau/multi-period-flp/solution//instSingle_I20_J1000_T8_0_result.txt
